nNurses = 191;
nHours = 40;
minHours = 10;
maxHours = 12;
maxConsec = 6;
maxPresence = 8;
demand = [17, 22, 19, 16, 17, 22, 22, 19, 20, 24, 28, 31, 32, 30, 35, 40, 39, 39, 39, 40, 36, 37, 35, 31, 33, 37, 37, 36, 31, 29, 32, 36, 33, 38, 37, 39, 35, 40, 35, 30];
